** Phase 14 beam deck: current_avl_compromise_conservative_closed_lf2
*NODE
1, 0.314193274, 8.5772818e-23, 0.0714391296
2, 0.313078215, 0.14547427, 0.0753224827
3, 0.311963156, 0.29094854, 0.0792058358
4, 0.310841182, 0.436425536, 0.0831099597
5, 0.309719207, 0.581902533, 0.0870140837
6, 0.308594824, 0.72738272, 0.0909187029
7, 0.307470441, 0.872862908, 0.0948233222
8, 0.30636555, 1.01834712, 0.0986967023
9, 0.305260659, 1.16383133, 0.102570082
10, 0.30424296, 1.30932098, 0.106369566
11, 0.303225261, 1.45481063, 0.110169049
12, 0.30208333, 1.60029983, 0.113921428
13, 0.300941398, 1.74578903, 0.117673807
14, 0.29967395, 1.89127952, 0.12147733
15, 0.298406501, 2.03677, 0.125280853
16, 0.297256362, 2.18226368, 0.129135132
17, 0.296106224, 2.32775737, 0.132989411
18, 0.29504755, 2.47325429, 0.136883303
19, 0.293988876, 2.61875122, 0.140777194
20, 0.292787835, 2.76426281, 0.14624962
21, 0.291586794, 2.9097744, 0.151722046
22, 0.290362404, 3.05530256, 0.15848792
23, 0.289138013, 3.20083072, 0.165253794
24, 0.288025621, 3.34636852, 0.172055343
25, 0.286913229, 3.49190632, 0.178856892
26, 0.285784187, 3.63745519, 0.185626456
27, 0.284655145, 3.78300406, 0.192396019
28, 0.283521764, 3.92856693, 0.199055486
29, 0.282388383, 4.0741298, 0.205714953
30, 0.281369169, 4.21971085, 0.212175838
31, 0.280349955, 4.3652919, 0.218636724
32, 0.279175281, 4.51088603, 0.224821932
33, 0.278000606, 4.65648017, 0.23100714
34, 0.276649702, 4.80209414, 0.23688584
35, 0.275298797, 4.94770812, 0.242764541
36, 0.274094361, 5.09334704, 0.248268644
37, 0.272889925, 5.23898595, 0.253772748
38, 0.271772867, 5.38465222, 0.258824082
39, 0.270655809, 5.53031848, 0.263875416
40, 0.269577016, 5.67601496, 0.268385807
41, 0.268498223, 5.82171143, 0.272896198
42, 0.267281345, 5.96748109, 0.277996372
43, 0.266064467, 6.11325074, 0.283096546
44, 0.264644353, 6.2591488, 0.289801996
45, 0.26322424, 6.40504686, 0.296507447
46, 0.262112324, 6.55100932, 0.30242979
47, 0.261000407, 6.69697178, 0.308352134
48, 0.259863904, 6.84300401, 0.31333681
49, 0.258727401, 6.98903625, 0.318321486
50, 0.25752965, 7.13514661, 0.322204425
51, 0.256331899, 7.28125697, 0.326087365
52, 0.255190728, 7.42745561, 0.328695113
53, 0.254049558, 7.57365424, 0.331302861
54, 0.252847802, 7.71993588, 0.33243333
55, 0.251646046, 7.86621752, 0.333563798
56, 0.25033253, 8.01258567, 0.333432055
57, 0.249019014, 8.15895382, 0.333300311
58, 0.247792266, 8.30540057, 0.33209247
59, 0.246565517, 8.45184733, 0.330884628
60, 0.245443033, 8.59836374, 0.328777826
61, 0.244320549, 8.74488014, 0.326671024
62, 0.243065403, 8.89156173, 0.325106867
63, 0.241810258, 9.03824332, 0.323542711
64, 0.240257113, 9.1852164, 0.324170459
65, 0.238703968, 9.33218948, 0.324798207
66, 0.237532642, 9.47922794, 0.325043779
67, 0.236361317, 9.6262664, 0.325289351
68, 0.235152674, 9.773361, 0.325236851
69, 0.23394403, 9.9204556, 0.325184352
70, 0.232606033, 10.0676005, 0.324909614
71, 0.231268035, 10.2147454, 0.324634875
72, 0.229757927, 10.3619357, 0.324205625
73, 0.228247818, 10.509126, 0.323776376
74, 0.227035234, 10.6563857, 0.32292601
75, 0.22582265, 10.8036454, 0.322075645
76, 0.224802565, 10.950981, 0.320670473
77, 0.223782481, 11.0983166, 0.319265302
78, 0.222505509, 11.2457109, 0.317503524
79, 0.221228537, 11.3931052, 0.315741747
80, 0.219908698, 11.5405478, 0.313805596
81, 0.21858886, 11.6879904, 0.311869444
82, 0.217403739, 11.8354716, 0.309925609
83, 0.216218617, 11.9829528, 0.307981773
84, 0.214625436, 12.1307388, 0.308929639
85, 0.213032255, 12.2785247, 0.309877504
86, 0.211625152, 12.4264588, 0.312314383
87, 0.210218048, 12.5743929, 0.314751261
88, 0.20891224, 12.72235, 0.317560664
89, 0.207606433, 12.870307, 0.320370066
90, 0.206080605, 13.0182814, 0.323585175
91, 0.204554776, 13.1662558, 0.326800283
92, 0.202351086, 13.3142416, 0.330442421
93, 0.200147395, 13.4622273, 0.334084559
94, 0.198961072, 13.6102839, 0.337932586
95, 0.197774749, 13.7583404, 0.341780613
96, 0.197382808, 13.9064487, 0.345729728
97, 0.196990868, 14.0545571, 0.349678843
98, 0.195289101, 14.2028669, 0.355612545
99, 0.193587335, 14.3511767, 0.361546247
100, 0.191922237, 14.4996239, 0.368961881
101, 0.19025714, 14.6480712, 0.376377515
102, 0.188853393, 14.7965383, 0.384316651
103, 0.187449645, 14.9450055, 0.392255787
104, 0.185974102, 15.0934825, 0.400794082
105, 0.184498558, 15.2419594, 0.409332377
106, 0.18303448, 15.390442, 0.418526286
107, 0.181570402, 15.5389246, 0.427720194
108, 0.179763108, 15.6875841, 0.439293608
109, 0.177955814, 15.8362435, 0.450867023
110, 0.176363063, 15.9849255, 0.463385102
111, 0.174770312, 16.1336075, 0.475903181
112, 0.173188108, 16.2822893, 0.48918658
113, 0.171605904, 16.4309712, 0.50246998
114, 0.169384025, 16.5798068, 0.517694903
115, 0.167162146, 16.7286425, 0.532919827
116, 0.165121774, 16.8774906, 0.548993883
117, 0.163081402, 17.0263388, 0.565067939
118, 0.161102748, 17.1751897, 0.581926324
119, 0.159124093, 17.3240407, 0.598784709
120, 0.879741167, 8.5772818e-23, 0.0651858601
121, 0.876528703, 0.14547427, 0.0660628557
122, 0.873316239, 0.29094854, 0.0669398512
123, 0.870138794, 0.436425536, 0.0634027998
124, 0.866961348, 0.581902533, 0.0598657484
125, 0.863806671, 0.72738272, 0.0548063928
126, 0.860651993, 0.872862908, 0.0497470373
127, 0.857492035, 1.01834712, 0.0460683977
128, 0.854332077, 1.16383133, 0.0423897582
129, 0.851211573, 1.30932098, 0.0430061321
130, 0.848091069, 1.45481063, 0.043622506
131, 0.845127418, 1.60029983, 0.0471473543
132, 0.842163767, 1.74578903, 0.0506722026
133, 0.8390137, 1.89127952, 0.0533307513
134, 0.835863633, 2.03677, 0.0559892999
135, 0.832677286, 2.18226368, 0.0573031889
136, 0.829490938, 2.32775737, 0.0586170778
137, 0.82635783, 2.47325429, 0.0581194108
138, 0.823224722, 2.61875122, 0.0576217439
139, 0.819970459, 2.76426281, 0.0564664482
140, 0.816716196, 2.9097744, 0.0553111526
141, 0.813442008, 3.05530256, 0.0537092363
142, 0.81016782, 3.20083072, 0.05210732
143, 0.806934821, 3.34636852, 0.0500205267
144, 0.803701822, 3.49190632, 0.0479337335
145, 0.800433521, 3.63745519, 0.0465763279
146, 0.797165221, 3.78300406, 0.0452189222
147, 0.793926099, 3.92856693, 0.0458181017
148, 0.790686977, 4.0741298, 0.0464172813
149, 0.787643181, 4.21971085, 0.0502131768
150, 0.784599386, 4.3652919, 0.0540090722
151, 0.781408228, 4.51088603, 0.060685168
152, 0.77821707, 4.65648017, 0.0673612637
153, 0.77476923, 4.80209414, 0.0749765424
154, 0.77132139, 4.94770812, 0.0825918211
155, 0.768103362, 5.09334704, 0.0900889733
156, 0.764885334, 5.23898595, 0.0975861255
157, 0.761641854, 5.38465222, 0.10392155
158, 0.758398375, 5.53031848, 0.110256974
159, 0.755161636, 5.67601496, 0.114400778
160, 0.751924896, 5.82171143, 0.118544582
161, 0.748596917, 5.96748109, 0.12070196
162, 0.745268937, 6.11325074, 0.122859339
163, 0.741783414, 6.2591488, 0.123905339
164, 0.738297892, 6.40504686, 0.124951338
165, 0.734983145, 6.55100932, 0.123826825
166, 0.731668399, 6.69697178, 0.122702312
167, 0.728253392, 6.84300401, 0.120597462
168, 0.724838385, 6.98903625, 0.118492612
169, 0.721461953, 7.13514661, 0.116615252
170, 0.718085521, 7.28125697, 0.114737891
171, 0.714997436, 7.42745561, 0.114313495
172, 0.71190935, 7.57365424, 0.113889099
173, 0.70806341, 7.71993588, 0.11563967
174, 0.70421747, 7.86621752, 0.117390241
175, 0.700395133, 8.01258567, 0.120182355
176, 0.696572795, 8.15895382, 0.122974468
177, 0.693334999, 8.30540057, 0.125413937
178, 0.690097203, 8.45184733, 0.127853406
179, 0.686740632, 8.59836374, 0.128564953
180, 0.68338406, 8.74488014, 0.1292765
181, 0.679876223, 8.89156173, 0.128193698
182, 0.676368387, 9.03824332, 0.127110895
183, 0.672639842, 9.1852164, 0.125234049
184, 0.668911298, 9.33218948, 0.123357203
185, 0.665416455, 9.47922794, 0.119208783
186, 0.661921611, 9.6262664, 0.115060364
187, 0.658288452, 9.773361, 0.109889712
188, 0.654655294, 9.9204556, 0.10471906
189, 0.651016891, 10.0676005, 0.099798721
190, 0.647378488, 10.2147454, 0.0948783819
191, 0.643670215, 10.3619357, 0.0915041074
192, 0.639961941, 10.509126, 0.088129833
193, 0.635943666, 10.6563857, 0.0869749026
194, 0.63192539, 10.8036454, 0.0858199722
195, 0.628301224, 10.950981, 0.0860243814
196, 0.624677058, 11.0983166, 0.0862287905
197, 0.62112109, 11.2457109, 0.0869265048
198, 0.617565123, 11.3931052, 0.0876242191
199, 0.613951055, 11.5405478, 0.0879689873
200, 0.610336987, 11.6879904, 0.0883137556
201, 0.606796514, 11.8354716, 0.087479109
202, 0.603256041, 11.9829528, 0.0866444625
203, 0.599269074, 12.1307388, 0.0866517601
204, 0.595282106, 12.2785247, 0.0866590577
205, 0.591418182, 12.4264588, 0.0863691664
206, 0.587554258, 12.5743929, 0.086079275
207, 0.58369637, 12.72235, 0.0852161246
208, 0.579838481, 12.870307, 0.0843529741
209, 0.575816667, 13.0182814, 0.0838586884
210, 0.571794853, 13.1662558, 0.0833644028
211, 0.566952968, 13.3142416, 0.084202075
212, 0.562111083, 13.4622273, 0.0850397473
213, 0.558998021, 13.6102839, 0.0876258302
214, 0.555884959, 13.7583404, 0.090211913
215, 0.553162228, 13.9064487, 0.0941978427
216, 0.550439498, 14.0545571, 0.0981837723
217, 0.545829789, 14.2028669, 0.105191849
218, 0.541220081, 14.3511767, 0.112199927
219, 0.53693982, 14.4996239, 0.121499377
220, 0.53265956, 14.6480712, 0.130798828
221, 0.528563255, 14.7965383, 0.14123358
222, 0.524466951, 14.9450055, 0.151668333
223, 0.520260863, 15.0934825, 0.163148747
224, 0.516054775, 15.2419594, 0.174629161
225, 0.511883461, 15.390442, 0.18707624
226, 0.507712147, 15.5389246, 0.199523319
227, 0.50295219, 15.6875841, 0.214429493
228, 0.498192233, 15.8362435, 0.229335668
229, 0.493597908, 15.9849255, 0.24529908
230, 0.489003584, 16.1336075, 0.261262492
231, 0.484441028, 16.2822893, 0.27806497
232, 0.479878473, 16.4309712, 0.294867447
233, 0.47386076, 16.5798068, 0.313561087
234, 0.467843046, 16.7286425, 0.332254726
235, 0.462049274, 16.8774906, 0.35181398
236, 0.456255503, 17.0263388, 0.371373235
237, 0.450708253, 17.1751897, 0.391726378
238, 0.445161003, 17.3240407, 0.412079522
*ELEMENT, TYPE=B32R, ELSET=MAIN_E1
1, 1, 2, 3
*ELEMENT, TYPE=B32R, ELSET=MAIN_E2
2, 3, 4, 5
*ELEMENT, TYPE=B32R, ELSET=MAIN_E3
3, 5, 6, 7
*ELEMENT, TYPE=B32R, ELSET=MAIN_E4
4, 7, 8, 9
*ELEMENT, TYPE=B32R, ELSET=MAIN_E5
5, 9, 10, 11
*ELEMENT, TYPE=B32R, ELSET=MAIN_E6
6, 11, 12, 13
*ELEMENT, TYPE=B32R, ELSET=MAIN_E7
7, 13, 14, 15
*ELEMENT, TYPE=B32R, ELSET=MAIN_E8
8, 15, 16, 17
*ELEMENT, TYPE=B32R, ELSET=MAIN_E9
9, 17, 18, 19
*ELEMENT, TYPE=B32R, ELSET=MAIN_E10
10, 19, 20, 21
*ELEMENT, TYPE=B32R, ELSET=MAIN_E11
11, 21, 22, 23
*ELEMENT, TYPE=B32R, ELSET=MAIN_E12
12, 23, 24, 25
*ELEMENT, TYPE=B32R, ELSET=MAIN_E13
13, 25, 26, 27
*ELEMENT, TYPE=B32R, ELSET=MAIN_E14
14, 27, 28, 29
*ELEMENT, TYPE=B32R, ELSET=MAIN_E15
15, 29, 30, 31
*ELEMENT, TYPE=B32R, ELSET=MAIN_E16
16, 31, 32, 33
*ELEMENT, TYPE=B32R, ELSET=MAIN_E17
17, 33, 34, 35
*ELEMENT, TYPE=B32R, ELSET=MAIN_E18
18, 35, 36, 37
*ELEMENT, TYPE=B32R, ELSET=MAIN_E19
19, 37, 38, 39
*ELEMENT, TYPE=B32R, ELSET=MAIN_E20
20, 39, 40, 41
*ELEMENT, TYPE=B32R, ELSET=MAIN_E21
21, 41, 42, 43
*ELEMENT, TYPE=B32R, ELSET=MAIN_E22
22, 43, 44, 45
*ELEMENT, TYPE=B32R, ELSET=MAIN_E23
23, 45, 46, 47
*ELEMENT, TYPE=B32R, ELSET=MAIN_E24
24, 47, 48, 49
*ELEMENT, TYPE=B32R, ELSET=MAIN_E25
25, 49, 50, 51
*ELEMENT, TYPE=B32R, ELSET=MAIN_E26
26, 51, 52, 53
*ELEMENT, TYPE=B32R, ELSET=MAIN_E27
27, 53, 54, 55
*ELEMENT, TYPE=B32R, ELSET=MAIN_E28
28, 55, 56, 57
*ELEMENT, TYPE=B32R, ELSET=MAIN_E29
29, 57, 58, 59
*ELEMENT, TYPE=B32R, ELSET=MAIN_E30
30, 59, 60, 61
*ELEMENT, TYPE=B32R, ELSET=MAIN_E31
31, 61, 62, 63
*ELEMENT, TYPE=B32R, ELSET=MAIN_E32
32, 63, 64, 65
*ELEMENT, TYPE=B32R, ELSET=MAIN_E33
33, 65, 66, 67
*ELEMENT, TYPE=B32R, ELSET=MAIN_E34
34, 67, 68, 69
*ELEMENT, TYPE=B32R, ELSET=MAIN_E35
35, 69, 70, 71
*ELEMENT, TYPE=B32R, ELSET=MAIN_E36
36, 71, 72, 73
*ELEMENT, TYPE=B32R, ELSET=MAIN_E37
37, 73, 74, 75
*ELEMENT, TYPE=B32R, ELSET=MAIN_E38
38, 75, 76, 77
*ELEMENT, TYPE=B32R, ELSET=MAIN_E39
39, 77, 78, 79
*ELEMENT, TYPE=B32R, ELSET=MAIN_E40
40, 79, 80, 81
*ELEMENT, TYPE=B32R, ELSET=MAIN_E41
41, 81, 82, 83
*ELEMENT, TYPE=B32R, ELSET=MAIN_E42
42, 83, 84, 85
*ELEMENT, TYPE=B32R, ELSET=MAIN_E43
43, 85, 86, 87
*ELEMENT, TYPE=B32R, ELSET=MAIN_E44
44, 87, 88, 89
*ELEMENT, TYPE=B32R, ELSET=MAIN_E45
45, 89, 90, 91
*ELEMENT, TYPE=B32R, ELSET=MAIN_E46
46, 91, 92, 93
*ELEMENT, TYPE=B32R, ELSET=MAIN_E47
47, 93, 94, 95
*ELEMENT, TYPE=B32R, ELSET=MAIN_E48
48, 95, 96, 97
*ELEMENT, TYPE=B32R, ELSET=MAIN_E49
49, 97, 98, 99
*ELEMENT, TYPE=B32R, ELSET=MAIN_E50
50, 99, 100, 101
*ELEMENT, TYPE=B32R, ELSET=MAIN_E51
51, 101, 102, 103
*ELEMENT, TYPE=B32R, ELSET=MAIN_E52
52, 103, 104, 105
*ELEMENT, TYPE=B32R, ELSET=MAIN_E53
53, 105, 106, 107
*ELEMENT, TYPE=B32R, ELSET=MAIN_E54
54, 107, 108, 109
*ELEMENT, TYPE=B32R, ELSET=MAIN_E55
55, 109, 110, 111
*ELEMENT, TYPE=B32R, ELSET=MAIN_E56
56, 111, 112, 113
*ELEMENT, TYPE=B32R, ELSET=MAIN_E57
57, 113, 114, 115
*ELEMENT, TYPE=B32R, ELSET=MAIN_E58
58, 115, 116, 117
*ELEMENT, TYPE=B32R, ELSET=MAIN_E59
59, 117, 118, 119
*ELEMENT, TYPE=B32R, ELSET=REAR_E1
60, 120, 121, 122
*ELEMENT, TYPE=B32R, ELSET=REAR_E2
61, 122, 123, 124
*ELEMENT, TYPE=B32R, ELSET=REAR_E3
62, 124, 125, 126
*ELEMENT, TYPE=B32R, ELSET=REAR_E4
63, 126, 127, 128
*ELEMENT, TYPE=B32R, ELSET=REAR_E5
64, 128, 129, 130
*ELEMENT, TYPE=B32R, ELSET=REAR_E6
65, 130, 131, 132
*ELEMENT, TYPE=B32R, ELSET=REAR_E7
66, 132, 133, 134
*ELEMENT, TYPE=B32R, ELSET=REAR_E8
67, 134, 135, 136
*ELEMENT, TYPE=B32R, ELSET=REAR_E9
68, 136, 137, 138
*ELEMENT, TYPE=B32R, ELSET=REAR_E10
69, 138, 139, 140
*ELEMENT, TYPE=B32R, ELSET=REAR_E11
70, 140, 141, 142
*ELEMENT, TYPE=B32R, ELSET=REAR_E12
71, 142, 143, 144
*ELEMENT, TYPE=B32R, ELSET=REAR_E13
72, 144, 145, 146
*ELEMENT, TYPE=B32R, ELSET=REAR_E14
73, 146, 147, 148
*ELEMENT, TYPE=B32R, ELSET=REAR_E15
74, 148, 149, 150
*ELEMENT, TYPE=B32R, ELSET=REAR_E16
75, 150, 151, 152
*ELEMENT, TYPE=B32R, ELSET=REAR_E17
76, 152, 153, 154
*ELEMENT, TYPE=B32R, ELSET=REAR_E18
77, 154, 155, 156
*ELEMENT, TYPE=B32R, ELSET=REAR_E19
78, 156, 157, 158
*ELEMENT, TYPE=B32R, ELSET=REAR_E20
79, 158, 159, 160
*ELEMENT, TYPE=B32R, ELSET=REAR_E21
80, 160, 161, 162
*ELEMENT, TYPE=B32R, ELSET=REAR_E22
81, 162, 163, 164
*ELEMENT, TYPE=B32R, ELSET=REAR_E23
82, 164, 165, 166
*ELEMENT, TYPE=B32R, ELSET=REAR_E24
83, 166, 167, 168
*ELEMENT, TYPE=B32R, ELSET=REAR_E25
84, 168, 169, 170
*ELEMENT, TYPE=B32R, ELSET=REAR_E26
85, 170, 171, 172
*ELEMENT, TYPE=B32R, ELSET=REAR_E27
86, 172, 173, 174
*ELEMENT, TYPE=B32R, ELSET=REAR_E28
87, 174, 175, 176
*ELEMENT, TYPE=B32R, ELSET=REAR_E29
88, 176, 177, 178
*ELEMENT, TYPE=B32R, ELSET=REAR_E30
89, 178, 179, 180
*ELEMENT, TYPE=B32R, ELSET=REAR_E31
90, 180, 181, 182
*ELEMENT, TYPE=B32R, ELSET=REAR_E32
91, 182, 183, 184
*ELEMENT, TYPE=B32R, ELSET=REAR_E33
92, 184, 185, 186
*ELEMENT, TYPE=B32R, ELSET=REAR_E34
93, 186, 187, 188
*ELEMENT, TYPE=B32R, ELSET=REAR_E35
94, 188, 189, 190
*ELEMENT, TYPE=B32R, ELSET=REAR_E36
95, 190, 191, 192
*ELEMENT, TYPE=B32R, ELSET=REAR_E37
96, 192, 193, 194
*ELEMENT, TYPE=B32R, ELSET=REAR_E38
97, 194, 195, 196
*ELEMENT, TYPE=B32R, ELSET=REAR_E39
98, 196, 197, 198
*ELEMENT, TYPE=B32R, ELSET=REAR_E40
99, 198, 199, 200
*ELEMENT, TYPE=B32R, ELSET=REAR_E41
100, 200, 201, 202
*ELEMENT, TYPE=B32R, ELSET=REAR_E42
101, 202, 203, 204
*ELEMENT, TYPE=B32R, ELSET=REAR_E43
102, 204, 205, 206
*ELEMENT, TYPE=B32R, ELSET=REAR_E44
103, 206, 207, 208
*ELEMENT, TYPE=B32R, ELSET=REAR_E45
104, 208, 209, 210
*ELEMENT, TYPE=B32R, ELSET=REAR_E46
105, 210, 211, 212
*ELEMENT, TYPE=B32R, ELSET=REAR_E47
106, 212, 213, 214
*ELEMENT, TYPE=B32R, ELSET=REAR_E48
107, 214, 215, 216
*ELEMENT, TYPE=B32R, ELSET=REAR_E49
108, 216, 217, 218
*ELEMENT, TYPE=B32R, ELSET=REAR_E50
109, 218, 219, 220
*ELEMENT, TYPE=B32R, ELSET=REAR_E51
110, 220, 221, 222
*ELEMENT, TYPE=B32R, ELSET=REAR_E52
111, 222, 223, 224
*ELEMENT, TYPE=B32R, ELSET=REAR_E53
112, 224, 225, 226
*ELEMENT, TYPE=B32R, ELSET=REAR_E54
113, 226, 227, 228
*ELEMENT, TYPE=B32R, ELSET=REAR_E55
114, 228, 229, 230
*ELEMENT, TYPE=B32R, ELSET=REAR_E56
115, 230, 231, 232
*ELEMENT, TYPE=B32R, ELSET=REAR_E57
116, 232, 233, 234
*ELEMENT, TYPE=B32R, ELSET=REAR_E58
117, 234, 235, 236
*ELEMENT, TYPE=B32R, ELSET=REAR_E59
118, 236, 237, 238
*NSET, NSET=ROOT_MAIN
1
*NSET, NSET=TIP_MAIN
119
*NSET, NSET=ROOT_REAR
120
*NSET, NSET=TIP_REAR
238
*NSET, NSET=WIRE_MAIN
53
*NSET, NSET=WIRE_REAR_LINK
172
*NSET, NSET=HPA_SUPPORT_ROOT
1, 120
*NSET, NSET=HPA_SUPPORT_WIRE
53, 172
*NSET, NSET=HPA_SUPPORT_ALL
1, 53, 120, 172
*MATERIAL, NAME=CARBON_FIBER_HM_MAIN
*ELASTIC
2.3e+11, 0.27
*DENSITY
1600
*MATERIAL, NAME=CARBON_FIBER_HM_REAR
*ELASTIC
2.3e+11, 0.27
*DENSITY
1600
*BEAM SECTION,ELSET=MAIN_E1,MATERIAL=CARBON_FIBER_HM_MAIN,SECTION=PIPE
0.0349239, 0.0008
1.0, 0.0, 0.0
*BEAM SECTION,ELSET=MAIN_E2,MATERIAL=CARBON_FIBER_HM_MAIN,SECTION=PIPE
0.0349239, 0.0008
1.0, 0.0, 0.0
*BEAM SECTION,ELSET=MAIN_E3,MATERIAL=CARBON_FIBER_HM_MAIN,SECTION=PIPE
0.0349239, 0.0008
1.0, 0.0, 0.0
*BEAM SECTION,ELSET=MAIN_E4,MATERIAL=CARBON_FIBER_HM_MAIN,SECTION=PIPE
0.0349239, 0.0008
1.0, 0.0, 0.0
*BEAM SECTION,ELSET=MAIN_E5,MATERIAL=CARBON_FIBER_HM_MAIN,SECTION=PIPE
0.0349239, 0.0008
1.0, 0.0, 0.0
*BEAM SECTION,ELSET=MAIN_E6,MATERIAL=CARBON_FIBER_HM_MAIN,SECTION=PIPE
0.0349239, 0.0008
1.0, 0.0, 0.0
*BEAM SECTION,ELSET=MAIN_E7,MATERIAL=CARBON_FIBER_HM_MAIN,SECTION=PIPE
0.0349239, 0.0008
1.0, 0.0, 0.0
*BEAM SECTION,ELSET=MAIN_E8,MATERIAL=CARBON_FIBER_HM_MAIN,SECTION=PIPE
0.0349239, 0.0008
1.0, 0.0, 0.0
*BEAM SECTION,ELSET=MAIN_E9,MATERIAL=CARBON_FIBER_HM_MAIN,SECTION=PIPE
0.0349239, 0.0008
1.0, 0.0, 0.0
*BEAM SECTION,ELSET=MAIN_E10,MATERIAL=CARBON_FIBER_HM_MAIN,SECTION=PIPE
0.0349239, 0.0008
1.0, 0.0, 0.0
*BEAM SECTION,ELSET=MAIN_E11,MATERIAL=CARBON_FIBER_HM_MAIN,SECTION=PIPE
0.0349239, 0.0008
1.0, 0.0, 0.0
*BEAM SECTION,ELSET=MAIN_E12,MATERIAL=CARBON_FIBER_HM_MAIN,SECTION=PIPE
0.0349239, 0.0008
1.0, 0.0, 0.0
*BEAM SECTION,ELSET=MAIN_E13,MATERIAL=CARBON_FIBER_HM_MAIN,SECTION=PIPE
0.0349239, 0.0008
1.0, 0.0, 0.0
*BEAM SECTION,ELSET=MAIN_E14,MATERIAL=CARBON_FIBER_HM_MAIN,SECTION=PIPE
0.0349239, 0.0008
1.0, 0.0, 0.0
*BEAM SECTION,ELSET=MAIN_E15,MATERIAL=CARBON_FIBER_HM_MAIN,SECTION=PIPE
0.0349239, 0.0008
1.0, 0.0, 0.0
*BEAM SECTION,ELSET=MAIN_E16,MATERIAL=CARBON_FIBER_HM_MAIN,SECTION=PIPE
0.0349239, 0.0008
1.0, 0.0, 0.0
*BEAM SECTION,ELSET=MAIN_E17,MATERIAL=CARBON_FIBER_HM_MAIN,SECTION=PIPE
0.0349239, 0.0008
1.0, 0.0, 0.0
*BEAM SECTION,ELSET=MAIN_E18,MATERIAL=CARBON_FIBER_HM_MAIN,SECTION=PIPE
0.0349239, 0.0008
1.0, 0.0, 0.0
*BEAM SECTION,ELSET=MAIN_E19,MATERIAL=CARBON_FIBER_HM_MAIN,SECTION=PIPE
0.0349239, 0.0008
1.0, 0.0, 0.0
*BEAM SECTION,ELSET=MAIN_E20,MATERIAL=CARBON_FIBER_HM_MAIN,SECTION=PIPE
0.0349239, 0.0008
1.0, 0.0, 0.0
*BEAM SECTION,ELSET=MAIN_E21,MATERIAL=CARBON_FIBER_HM_MAIN,SECTION=PIPE
0.0349239, 0.0008
1.0, 0.0, 0.0
*BEAM SECTION,ELSET=MAIN_E22,MATERIAL=CARBON_FIBER_HM_MAIN,SECTION=PIPE
0.0349239, 0.0008
1.0, 0.0, 0.0
*BEAM SECTION,ELSET=MAIN_E23,MATERIAL=CARBON_FIBER_HM_MAIN,SECTION=PIPE
0.0349239, 0.0008
1.0, 0.0, 0.0
*BEAM SECTION,ELSET=MAIN_E24,MATERIAL=CARBON_FIBER_HM_MAIN,SECTION=PIPE
0.0349239, 0.0008
1.0, 0.0, 0.0
*BEAM SECTION,ELSET=MAIN_E25,MATERIAL=CARBON_FIBER_HM_MAIN,SECTION=PIPE
0.0349239, 0.0008
1.0, 0.0, 0.0
*BEAM SECTION,ELSET=MAIN_E26,MATERIAL=CARBON_FIBER_HM_MAIN,SECTION=PIPE
0.0349239, 0.0008
1.0, 0.0, 0.0
*BEAM SECTION,ELSET=MAIN_E27,MATERIAL=CARBON_FIBER_HM_MAIN,SECTION=PIPE
0.0349239, 0.0008
1.0, 0.0, 0.0
*BEAM SECTION,ELSET=MAIN_E28,MATERIAL=CARBON_FIBER_HM_MAIN,SECTION=PIPE
0.0349239, 0.0008
1.0, 0.0, 0.0
*BEAM SECTION,ELSET=MAIN_E29,MATERIAL=CARBON_FIBER_HM_MAIN,SECTION=PIPE
0.0349239, 0.0008
1.0, 0.0, 0.0
*BEAM SECTION,ELSET=MAIN_E30,MATERIAL=CARBON_FIBER_HM_MAIN,SECTION=PIPE
0.0349239, 0.0008
1.0, 0.0, 0.0
*BEAM SECTION,ELSET=MAIN_E31,MATERIAL=CARBON_FIBER_HM_MAIN,SECTION=PIPE
0.0349239, 0.0008
1.0, 0.0, 0.0
*BEAM SECTION,ELSET=MAIN_E32,MATERIAL=CARBON_FIBER_HM_MAIN,SECTION=PIPE
0.0349239, 0.0008
1.0, 0.0, 0.0
*BEAM SECTION,ELSET=MAIN_E33,MATERIAL=CARBON_FIBER_HM_MAIN,SECTION=PIPE
0.0349239, 0.0008
1.0, 0.0, 0.0
*BEAM SECTION,ELSET=MAIN_E34,MATERIAL=CARBON_FIBER_HM_MAIN,SECTION=PIPE
0.0349239, 0.0008
1.0, 0.0, 0.0
*BEAM SECTION,ELSET=MAIN_E35,MATERIAL=CARBON_FIBER_HM_MAIN,SECTION=PIPE
0.0349239, 0.0008
1.0, 0.0, 0.0
*BEAM SECTION,ELSET=MAIN_E36,MATERIAL=CARBON_FIBER_HM_MAIN,SECTION=PIPE
0.0349239, 0.0008
1.0, 0.0, 0.0
*BEAM SECTION,ELSET=MAIN_E37,MATERIAL=CARBON_FIBER_HM_MAIN,SECTION=PIPE
0.0310939, 0.0008
1.0, 0.0, 0.0
*BEAM SECTION,ELSET=MAIN_E38,MATERIAL=CARBON_FIBER_HM_MAIN,SECTION=PIPE
0.0272639, 0.0008
1.0, 0.0, 0.0
*BEAM SECTION,ELSET=MAIN_E39,MATERIAL=CARBON_FIBER_HM_MAIN,SECTION=PIPE
0.0272639, 0.0008
1.0, 0.0, 0.0
*BEAM SECTION,ELSET=MAIN_E40,MATERIAL=CARBON_FIBER_HM_MAIN,SECTION=PIPE
0.0272639, 0.0008
1.0, 0.0, 0.0
*BEAM SECTION,ELSET=MAIN_E41,MATERIAL=CARBON_FIBER_HM_MAIN,SECTION=PIPE
0.0272639, 0.0008
1.0, 0.0, 0.0
*BEAM SECTION,ELSET=MAIN_E42,MATERIAL=CARBON_FIBER_HM_MAIN,SECTION=PIPE
0.0272639, 0.0008
1.0, 0.0, 0.0
*BEAM SECTION,ELSET=MAIN_E43,MATERIAL=CARBON_FIBER_HM_MAIN,SECTION=PIPE
0.0272639, 0.0008
1.0, 0.0, 0.0
*BEAM SECTION,ELSET=MAIN_E44,MATERIAL=CARBON_FIBER_HM_MAIN,SECTION=PIPE
0.0272639, 0.0008
1.0, 0.0, 0.0
*BEAM SECTION,ELSET=MAIN_E45,MATERIAL=CARBON_FIBER_HM_MAIN,SECTION=PIPE
0.0272639, 0.0008
1.0, 0.0, 0.0
*BEAM SECTION,ELSET=MAIN_E46,MATERIAL=CARBON_FIBER_HM_MAIN,SECTION=PIPE
0.0272639, 0.0008
1.0, 0.0, 0.0
*BEAM SECTION,ELSET=MAIN_E47,MATERIAL=CARBON_FIBER_HM_MAIN,SECTION=PIPE
0.0232764, 0.0008
1.0, 0.0, 0.0
*BEAM SECTION,ELSET=MAIN_E48,MATERIAL=CARBON_FIBER_HM_MAIN,SECTION=PIPE
0.0192889, 0.0008
1.0, 0.0, 0.0
*BEAM SECTION,ELSET=MAIN_E49,MATERIAL=CARBON_FIBER_HM_MAIN,SECTION=PIPE
0.0192889, 0.0008
1.0, 0.0, 0.0
*BEAM SECTION,ELSET=MAIN_E50,MATERIAL=CARBON_FIBER_HM_MAIN,SECTION=PIPE
0.0192889, 0.0008
1.0, 0.0, 0.0
*BEAM SECTION,ELSET=MAIN_E51,MATERIAL=CARBON_FIBER_HM_MAIN,SECTION=PIPE
0.0192889, 0.0008
1.0, 0.0, 0.0
*BEAM SECTION,ELSET=MAIN_E52,MATERIAL=CARBON_FIBER_HM_MAIN,SECTION=PIPE
0.0192889, 0.0008
1.0, 0.0, 0.0
*BEAM SECTION,ELSET=MAIN_E53,MATERIAL=CARBON_FIBER_HM_MAIN,SECTION=PIPE
0.0192889, 0.0008
1.0, 0.0, 0.0
*BEAM SECTION,ELSET=MAIN_E54,MATERIAL=CARBON_FIBER_HM_MAIN,SECTION=PIPE
0.0192889, 0.0008
1.0, 0.0, 0.0
*BEAM SECTION,ELSET=MAIN_E55,MATERIAL=CARBON_FIBER_HM_MAIN,SECTION=PIPE
0.0192889, 0.0008
1.0, 0.0, 0.0
*BEAM SECTION,ELSET=MAIN_E56,MATERIAL=CARBON_FIBER_HM_MAIN,SECTION=PIPE
0.0192889, 0.0008
1.0, 0.0, 0.0
*BEAM SECTION,ELSET=MAIN_E57,MATERIAL=CARBON_FIBER_HM_MAIN,SECTION=PIPE
0.0192889, 0.0008
1.0, 0.0, 0.0
*BEAM SECTION,ELSET=MAIN_E58,MATERIAL=CARBON_FIBER_HM_MAIN,SECTION=PIPE
0.0192889, 0.0008
1.0, 0.0, 0.0
*BEAM SECTION,ELSET=MAIN_E59,MATERIAL=CARBON_FIBER_HM_MAIN,SECTION=PIPE
0.0192889, 0.0008
1.0, 0.0, 0.0
*BEAM SECTION,ELSET=REAR_E1,MATERIAL=CARBON_FIBER_HM_REAR,SECTION=PIPE
0.01, 0.0008
1.0, 0.0, 0.0
*BEAM SECTION,ELSET=REAR_E2,MATERIAL=CARBON_FIBER_HM_REAR,SECTION=PIPE
0.01, 0.0008
1.0, 0.0, 0.0
*BEAM SECTION,ELSET=REAR_E3,MATERIAL=CARBON_FIBER_HM_REAR,SECTION=PIPE
0.01, 0.0008
1.0, 0.0, 0.0
*BEAM SECTION,ELSET=REAR_E4,MATERIAL=CARBON_FIBER_HM_REAR,SECTION=PIPE
0.01, 0.0008
1.0, 0.0, 0.0
*BEAM SECTION,ELSET=REAR_E5,MATERIAL=CARBON_FIBER_HM_REAR,SECTION=PIPE
0.01, 0.0008
1.0, 0.0, 0.0
*BEAM SECTION,ELSET=REAR_E6,MATERIAL=CARBON_FIBER_HM_REAR,SECTION=PIPE
0.01, 0.0008
1.0, 0.0, 0.0
*BEAM SECTION,ELSET=REAR_E7,MATERIAL=CARBON_FIBER_HM_REAR,SECTION=PIPE
0.01, 0.0008
1.0, 0.0, 0.0
*BEAM SECTION,ELSET=REAR_E8,MATERIAL=CARBON_FIBER_HM_REAR,SECTION=PIPE
0.01, 0.0008
1.0, 0.0, 0.0
*BEAM SECTION,ELSET=REAR_E9,MATERIAL=CARBON_FIBER_HM_REAR,SECTION=PIPE
0.01, 0.0008
1.0, 0.0, 0.0
*BEAM SECTION,ELSET=REAR_E10,MATERIAL=CARBON_FIBER_HM_REAR,SECTION=PIPE
0.01, 0.0008
1.0, 0.0, 0.0
*BEAM SECTION,ELSET=REAR_E11,MATERIAL=CARBON_FIBER_HM_REAR,SECTION=PIPE
0.01, 0.0008
1.0, 0.0, 0.0
*BEAM SECTION,ELSET=REAR_E12,MATERIAL=CARBON_FIBER_HM_REAR,SECTION=PIPE
0.01, 0.0008
1.0, 0.0, 0.0
*BEAM SECTION,ELSET=REAR_E13,MATERIAL=CARBON_FIBER_HM_REAR,SECTION=PIPE
0.01, 0.0008
1.0, 0.0, 0.0
*BEAM SECTION,ELSET=REAR_E14,MATERIAL=CARBON_FIBER_HM_REAR,SECTION=PIPE
0.01, 0.0008
1.0, 0.0, 0.0
*BEAM SECTION,ELSET=REAR_E15,MATERIAL=CARBON_FIBER_HM_REAR,SECTION=PIPE
0.01, 0.0008
1.0, 0.0, 0.0
*BEAM SECTION,ELSET=REAR_E16,MATERIAL=CARBON_FIBER_HM_REAR,SECTION=PIPE
0.01, 0.0008
1.0, 0.0, 0.0
*BEAM SECTION,ELSET=REAR_E17,MATERIAL=CARBON_FIBER_HM_REAR,SECTION=PIPE
0.01, 0.0008
1.0, 0.0, 0.0
*BEAM SECTION,ELSET=REAR_E18,MATERIAL=CARBON_FIBER_HM_REAR,SECTION=PIPE
0.01, 0.0008
1.0, 0.0, 0.0
*BEAM SECTION,ELSET=REAR_E19,MATERIAL=CARBON_FIBER_HM_REAR,SECTION=PIPE
0.01, 0.0008
1.0, 0.0, 0.0
*BEAM SECTION,ELSET=REAR_E20,MATERIAL=CARBON_FIBER_HM_REAR,SECTION=PIPE
0.01, 0.0008
1.0, 0.0, 0.0
*BEAM SECTION,ELSET=REAR_E21,MATERIAL=CARBON_FIBER_HM_REAR,SECTION=PIPE
0.01, 0.0008
1.0, 0.0, 0.0
*BEAM SECTION,ELSET=REAR_E22,MATERIAL=CARBON_FIBER_HM_REAR,SECTION=PIPE
0.01, 0.0008
1.0, 0.0, 0.0
*BEAM SECTION,ELSET=REAR_E23,MATERIAL=CARBON_FIBER_HM_REAR,SECTION=PIPE
0.01, 0.0008
1.0, 0.0, 0.0
*BEAM SECTION,ELSET=REAR_E24,MATERIAL=CARBON_FIBER_HM_REAR,SECTION=PIPE
0.01, 0.0008
1.0, 0.0, 0.0
*BEAM SECTION,ELSET=REAR_E25,MATERIAL=CARBON_FIBER_HM_REAR,SECTION=PIPE
0.01, 0.0008
1.0, 0.0, 0.0
*BEAM SECTION,ELSET=REAR_E26,MATERIAL=CARBON_FIBER_HM_REAR,SECTION=PIPE
0.01, 0.0008
1.0, 0.0, 0.0
*BEAM SECTION,ELSET=REAR_E27,MATERIAL=CARBON_FIBER_HM_REAR,SECTION=PIPE
0.01, 0.0008
1.0, 0.0, 0.0
*BEAM SECTION,ELSET=REAR_E28,MATERIAL=CARBON_FIBER_HM_REAR,SECTION=PIPE
0.01, 0.0008
1.0, 0.0, 0.0
*BEAM SECTION,ELSET=REAR_E29,MATERIAL=CARBON_FIBER_HM_REAR,SECTION=PIPE
0.01, 0.0008
1.0, 0.0, 0.0
*BEAM SECTION,ELSET=REAR_E30,MATERIAL=CARBON_FIBER_HM_REAR,SECTION=PIPE
0.01, 0.0008
1.0, 0.0, 0.0
*BEAM SECTION,ELSET=REAR_E31,MATERIAL=CARBON_FIBER_HM_REAR,SECTION=PIPE
0.01, 0.0008
1.0, 0.0, 0.0
*BEAM SECTION,ELSET=REAR_E32,MATERIAL=CARBON_FIBER_HM_REAR,SECTION=PIPE
0.01, 0.0008
1.0, 0.0, 0.0
*BEAM SECTION,ELSET=REAR_E33,MATERIAL=CARBON_FIBER_HM_REAR,SECTION=PIPE
0.01, 0.0008
1.0, 0.0, 0.0
*BEAM SECTION,ELSET=REAR_E34,MATERIAL=CARBON_FIBER_HM_REAR,SECTION=PIPE
0.01, 0.0008
1.0, 0.0, 0.0
*BEAM SECTION,ELSET=REAR_E35,MATERIAL=CARBON_FIBER_HM_REAR,SECTION=PIPE
0.01, 0.0008
1.0, 0.0, 0.0
*BEAM SECTION,ELSET=REAR_E36,MATERIAL=CARBON_FIBER_HM_REAR,SECTION=PIPE
0.01, 0.0008
1.0, 0.0, 0.0
*BEAM SECTION,ELSET=REAR_E37,MATERIAL=CARBON_FIBER_HM_REAR,SECTION=PIPE
0.01, 0.0008
1.0, 0.0, 0.0
*BEAM SECTION,ELSET=REAR_E38,MATERIAL=CARBON_FIBER_HM_REAR,SECTION=PIPE
0.01, 0.0008
1.0, 0.0, 0.0
*BEAM SECTION,ELSET=REAR_E39,MATERIAL=CARBON_FIBER_HM_REAR,SECTION=PIPE
0.01, 0.0008
1.0, 0.0, 0.0
*BEAM SECTION,ELSET=REAR_E40,MATERIAL=CARBON_FIBER_HM_REAR,SECTION=PIPE
0.01, 0.0008
1.0, 0.0, 0.0
*BEAM SECTION,ELSET=REAR_E41,MATERIAL=CARBON_FIBER_HM_REAR,SECTION=PIPE
0.01, 0.0008
1.0, 0.0, 0.0
*BEAM SECTION,ELSET=REAR_E42,MATERIAL=CARBON_FIBER_HM_REAR,SECTION=PIPE
0.01, 0.0008
1.0, 0.0, 0.0
*BEAM SECTION,ELSET=REAR_E43,MATERIAL=CARBON_FIBER_HM_REAR,SECTION=PIPE
0.01, 0.0008
1.0, 0.0, 0.0
*BEAM SECTION,ELSET=REAR_E44,MATERIAL=CARBON_FIBER_HM_REAR,SECTION=PIPE
0.01, 0.0008
1.0, 0.0, 0.0
*BEAM SECTION,ELSET=REAR_E45,MATERIAL=CARBON_FIBER_HM_REAR,SECTION=PIPE
0.01, 0.0008
1.0, 0.0, 0.0
*BEAM SECTION,ELSET=REAR_E46,MATERIAL=CARBON_FIBER_HM_REAR,SECTION=PIPE
0.01, 0.0008
1.0, 0.0, 0.0
*BEAM SECTION,ELSET=REAR_E47,MATERIAL=CARBON_FIBER_HM_REAR,SECTION=PIPE
0.01, 0.0008
1.0, 0.0, 0.0
*BEAM SECTION,ELSET=REAR_E48,MATERIAL=CARBON_FIBER_HM_REAR,SECTION=PIPE
0.01, 0.0008
1.0, 0.0, 0.0
*BEAM SECTION,ELSET=REAR_E49,MATERIAL=CARBON_FIBER_HM_REAR,SECTION=PIPE
0.01, 0.0008
1.0, 0.0, 0.0
*BEAM SECTION,ELSET=REAR_E50,MATERIAL=CARBON_FIBER_HM_REAR,SECTION=PIPE
0.01, 0.0008
1.0, 0.0, 0.0
*BEAM SECTION,ELSET=REAR_E51,MATERIAL=CARBON_FIBER_HM_REAR,SECTION=PIPE
0.01, 0.0008
1.0, 0.0, 0.0
*BEAM SECTION,ELSET=REAR_E52,MATERIAL=CARBON_FIBER_HM_REAR,SECTION=PIPE
0.01, 0.0008
1.0, 0.0, 0.0
*BEAM SECTION,ELSET=REAR_E53,MATERIAL=CARBON_FIBER_HM_REAR,SECTION=PIPE
0.01, 0.0008
1.0, 0.0, 0.0
*BEAM SECTION,ELSET=REAR_E54,MATERIAL=CARBON_FIBER_HM_REAR,SECTION=PIPE
0.01, 0.0008
1.0, 0.0, 0.0
*BEAM SECTION,ELSET=REAR_E55,MATERIAL=CARBON_FIBER_HM_REAR,SECTION=PIPE
0.01, 0.0008
1.0, 0.0, 0.0
*BEAM SECTION,ELSET=REAR_E56,MATERIAL=CARBON_FIBER_HM_REAR,SECTION=PIPE
0.01, 0.0008
1.0, 0.0, 0.0
*BEAM SECTION,ELSET=REAR_E57,MATERIAL=CARBON_FIBER_HM_REAR,SECTION=PIPE
0.01, 0.0008
1.0, 0.0, 0.0
*BEAM SECTION,ELSET=REAR_E58,MATERIAL=CARBON_FIBER_HM_REAR,SECTION=PIPE
0.01, 0.0008
1.0, 0.0, 0.0
*BEAM SECTION,ELSET=REAR_E59,MATERIAL=CARBON_FIBER_HM_REAR,SECTION=PIPE
0.01, 0.0008
1.0, 0.0, 0.0
*EQUATION
2
11, 1, 1.0, 130, 1, -1.0
*EQUATION
2
11, 2, 1.0, 130, 2, -1.0
*EQUATION
2
11, 3, 1.0, 130, 3, -1.0
*EQUATION
2
11, 4, 1.0, 130, 4, -1.0
*EQUATION
2
11, 5, 1.0, 130, 5, -1.0
*EQUATION
2
11, 6, 1.0, 130, 6, -1.0
*EQUATION
2
31, 1, 1.0, 150, 1, -1.0
*EQUATION
2
31, 2, 1.0, 150, 2, -1.0
*EQUATION
2
31, 3, 1.0, 150, 3, -1.0
*EQUATION
2
31, 4, 1.0, 150, 4, -1.0
*EQUATION
2
31, 5, 1.0, 150, 5, -1.0
*EQUATION
2
31, 6, 1.0, 150, 6, -1.0
*EQUATION
2
53, 1, 1.0, 172, 1, -1.0
*EQUATION
2
53, 2, 1.0, 172, 2, -1.0
*EQUATION
2
172, 3, 1.0, 53, 3, -1.0
*EQUATION
2
53, 4, 1.0, 172, 4, -1.0
*EQUATION
2
53, 5, 1.0, 172, 5, -1.0
*EQUATION
2
53, 6, 1.0, 172, 6, -1.0
*EQUATION
2
73, 1, 1.0, 192, 1, -1.0
*EQUATION
2
73, 2, 1.0, 192, 2, -1.0
*EQUATION
2
73, 3, 1.0, 192, 3, -1.0
*EQUATION
2
73, 4, 1.0, 192, 4, -1.0
*EQUATION
2
73, 5, 1.0, 192, 5, -1.0
*EQUATION
2
73, 6, 1.0, 192, 6, -1.0
*EQUATION
2
93, 1, 1.0, 212, 1, -1.0
*EQUATION
2
93, 2, 1.0, 212, 2, -1.0
*EQUATION
2
93, 3, 1.0, 212, 3, -1.0
*EQUATION
2
93, 4, 1.0, 212, 4, -1.0
*EQUATION
2
93, 5, 1.0, 212, 5, -1.0
*EQUATION
2
93, 6, 1.0, 212, 6, -1.0
*BOUNDARY
1, 1, 6
120, 1, 6
53, 3, 3, 0.0
*STEP
*STATIC
1.0, 1.0
*CLOAD
1, 3, -0.792229624
120, 3, -0.220293895
3, 3, -1.58445925
122, 3, -0.440587789
5, 3, 21.1575593
124, 3, -0.440587789
7, 3, 21.0670617
126, 3, -0.440587789
9, 3, 20.9765642
128, 3, -0.440587789
11, 3, 20.8866903
130, 3, -0.440587789
13, 3, 20.7979215
132, 3, -0.440587789
15, 3, 20.7091528
134, 3, -0.440587789
17, 3, 20.6130656
136, 3, -0.440587789
19, 3, 20.4969816
138, 3, -0.440587789
21, 3, 20.3808977
140, 3, -0.440587789
23, 3, 20.2585013
142, 3, -0.440587789
25, 3, 20.1063683
144, 3, -0.440587789
27, 3, 19.9542354
146, 3, -0.440587789
29, 3, 19.801779
148, 3, -0.440587789
31, 3, 19.6460233
150, 3, -0.440587789
33, 3, 19.4908365
152, 3, -0.440587789
35, 3, 19.3334278
154, 3, -0.440587789
37, 3, 19.1729237
156, 3, -0.440587789
39, 3, 19.001343
158, 3, -0.440587789
41, 3, 18.8165942
160, 3, -0.440587789
43, 3, 18.6231608
162, 3, -0.440587789
45, 3, 18.4164256
164, 3, -0.440587789
47, 3, 18.2007316
166, 3, -0.440587789
49, 3, 17.9667294
168, 3, -0.440587789
51, 3, 17.732447
170, 3, -0.440587789
53, 3, 17.4960774
172, 3, -0.440587789
55, 3, 17.2599048
174, 3, -0.440587789
57, 3, 17.0225432
176, 3, -0.440587789
59, 3, 16.7801797
178, 3, -0.440587789
61, 3, 16.5064241
180, 3, -0.440587789
63, 3, 16.2316496
182, 3, -0.440587789
65, 3, 15.9329189
184, 3, -0.440587789
67, 3, 15.6353438
186, 3, -0.440587789
69, 3, 15.30704
188, 3, -0.440587789
71, 3, 14.9816675
190, 3, -0.440587789
73, 3, 14.815435
192, 3, -0.440587789
75, 3, 14.6511235
194, 3, -0.440587789
77, 3, 14.2713229
196, 3, -0.440587789
79, 3, 13.8901723
198, 3, -0.440587789
81, 3, 13.3662704
200, 3, -0.440587789
83, 3, 12.8272865
202, 3, -0.440587789
85, 3, 12.1182395
204, 3, -0.440587789
87, 3, 11.3828625
206, 3, -0.440587789
89, 3, 10.5110975
208, 3, -0.440587789
91, 3, 9.61352389
210, 3, -0.440587789
93, 3, 8.89666088
212, 3, -0.440587789
95, 3, 8.20230442
214, 3, -0.440587789
97, 3, 7.49246721
216, 3, -0.440587789
99, 3, 6.8792743
218, 3, -0.440587789
101, 3, 6.41093863
220, 3, -0.440587789
103, 3, 6.03201374
222, 3, -0.440587789
105, 3, 5.67482869
224, 3, -0.440587789
107, 3, 5.33162459
226, 3, -0.440587789
109, 3, 4.95593755
228, 3, -0.440587789
111, 3, 4.55127726
230, 3, -0.440587789
113, 3, -0.866897781
232, 3, -0.440587789
115, 3, -0.866897781
234, 3, -0.440587789
117, 3, -0.866897781
236, 3, -0.440587789
119, 3, -0.43344889
238, 3, -0.220293895
*NODE PRINT, NSET=HPA_SUPPORT_ALL, TOTALS=ONLY
RF
*NODE PRINT, NSET=HPA_SUPPORT_ROOT, TOTALS=ONLY
RF
*NODE PRINT, NSET=HPA_SUPPORT_WIRE, TOTALS=ONLY
RF
*NODE FILE, OUTPUT=2D
U
*END STEP
